tmp.dimacs
p cnf 412 1178
-329 -344 2 0
-2 344 0
-2 329 0
-344 62 0
-329 62 0
-62 329 344 0
-328 -343 61 0
-61 343 0
-61 328 0
-343 60 0
-328 60 0
-60 328 343 0
-327 -342 59 0
-59 342 0
-59 327 0
-342 58 0
-327 58 0
-58 327 342 0
-326 -341 57 0
-57 341 0
-57 326 0
-341 56 0
-326 56 0
-56 326 341 0
-325 -340 55 0
-55 340 0
-55 325 0
-340 54 0
-325 54 0
-54 325 340 0
-324 -339 53 0
-53 339 0
-53 324 0
-339 52 0
-324 52 0
-52 324 339 0
-323 -338 51 0
-51 338 0
-51 323 0
-338 50 0
-323 50 0
-50 323 338 0
-322 -337 49 0
-49 337 0
-49 322 0
-337 48 0
-322 48 0
-48 322 337 0
-321 -336 47 0
-47 336 0
-47 321 0
-336 46 0
-321 46 0
-46 321 336 0
-320 -335 45 0
-45 335 0
-45 320 0
-335 44 0
-320 44 0
-44 320 335 0
-319 -334 43 0
-43 334 0
-43 319 0
-334 42 0
-319 42 0
-42 319 334 0
-318 -333 41 0
-41 333 0
-41 318 0
-333 40 0
-318 40 0
-40 318 333 0
-317 -332 39 0
-39 332 0
-39 317 0
-332 38 0
-317 38 0
-38 317 332 0
-316 -331 37 0
-37 331 0
-37 316 0
-331 36 0
-316 36 0
-36 316 331 0
-315 -330 35 0
-35 330 0
-35 315 0
-330 34 0
-315 34 0
-34 315 330 0
-385 -392 344 0
-344 392 0
-344 385 0
-392 343 0
-385 343 0
-343 385 392 0
-384 -391 342 0
-342 391 0
-342 384 0
-391 341 0
-384 341 0
-341 384 391 0
-383 -390 340 0
-340 390 0
-340 383 0
-390 339 0
-383 339 0
-339 383 390 0
-382 -389 338 0
-338 389 0
-338 382 0
-389 337 0
-382 337 0
-337 382 389 0
-381 -388 336 0
-336 388 0
-336 381 0
-388 335 0
-381 335 0
-335 381 388 0
-380 -387 334 0
-334 387 0
-334 380 0
-387 333 0
-380 333 0
-333 380 387 0
-379 -386 332 0
-332 386 0
-332 379 0
-386 331 0
-379 331 0
-331 379 386 0
-405 -408 392 0
-392 408 0
-392 405 0
-408 391 0
-405 391 0
-391 405 408 0
-404 -407 390 0
-390 407 0
-390 404 0
-407 389 0
-404 389 0
-389 404 407 0
-403 -406 388 0
-388 406 0
-388 403 0
-406 387 0
-403 387 0
-387 403 406 0
-411 -412 408 0
-408 412 0
-408 411 0
-412 407 0
-411 407 0
-407 411 412 0
-78 -94 2 0
-2 94 0
-2 78 0
-94 412 0
-78 412 0
-412 78 94 0
-70 -86 411 0
-411 86 0
-411 70 0
-86 406 0
-70 406 0
-406 70 86 0
-409 -410 404 0
-404 410 0
-404 409 0
-410 403 0
-409 403 0
-403 409 410 0
-74 -90 405 0
-405 90 0
-405 74 0
-90 410 0
-74 410 0
-410 74 90 0
-66 -82 409 0
-409 82 0
-409 66 0
-82 386 0
-66 386 0
-386 66 82 0
-395 -398 384 0
-384 398 0
-384 395 0
-398 383 0
-395 383 0
-383 395 398 0
-394 -397 382 0
-382 397 0
-382 394 0
-397 381 0
-394 381 0
-381 394 397 0
-393 -396 380 0
-380 396 0
-380 393 0
-396 379 0
-393 379 0
-379 393 396 0
-401 -402 398 0
-398 402 0
-398 401 0
-402 397 0
-401 397 0
-397 401 402 0
-76 -92 385 0
-385 92 0
-385 76 0
-92 402 0
-76 402 0
-402 76 92 0
-68 -84 401 0
-401 84 0
-401 68 0
-84 396 0
-68 396 0
-396 68 84 0
-399 -400 394 0
-394 400 0
-394 399 0
-400 393 0
-399 393 0
-393 399 400 0
-72 -88 395 0
-395 88 0
-395 72 0
-88 400 0
-72 400 0
-400 72 88 0
-64 -80 399 0
-399 80 0
-399 64 0
-80 330 0
-64 330 0
-330 64 80 0
-351 -358 328 0
-328 358 0
-328 351 0
-358 327 0
-351 327 0
-327 351 358 0
-350 -357 326 0
-326 357 0
-326 350 0
-357 325 0
-350 325 0
-325 350 357 0
-349 -356 324 0
-324 356 0
-324 349 0
-356 323 0
-349 323 0
-323 349 356 0
-348 -355 322 0
-322 355 0
-322 348 0
-355 321 0
-348 321 0
-321 348 355 0
-347 -354 320 0
-320 354 0
-320 347 0
-354 319 0
-347 319 0
-319 347 354 0
-346 -353 318 0
-318 353 0
-318 346 0
-353 317 0
-346 317 0
-317 346 353 0
-345 -352 316 0
-316 352 0
-316 345 0
-352 315 0
-345 315 0
-315 345 352 0
-371 -374 358 0
-358 374 0
-358 371 0
-374 357 0
-371 357 0
-357 371 374 0
-370 -373 356 0
-356 373 0
-356 370 0
-373 355 0
-370 355 0
-355 370 373 0
-369 -372 354 0
-354 372 0
-354 369 0
-372 353 0
-369 353 0
-353 369 372 0
-377 -378 374 0
-374 378 0
-374 377 0
-378 373 0
-377 373 0
-373 377 378 0
-77 -93 329 0
-329 93 0
-329 77 0
-93 378 0
-77 378 0
-378 77 93 0
-69 -85 377 0
-377 85 0
-377 69 0
-85 372 0
-69 372 0
-372 69 85 0
-375 -376 370 0
-370 376 0
-370 375 0
-376 369 0
-375 369 0
-369 375 376 0
-73 -89 371 0
-371 89 0
-371 73 0
-89 376 0
-73 376 0
-376 73 89 0
-65 -81 375 0
-375 81 0
-375 65 0
-81 352 0
-65 352 0
-352 65 81 0
-361 -364 350 0
-350 364 0
-350 361 0
-364 349 0
-361 349 0
-349 361 364 0
-360 -363 348 0
-348 363 0
-348 360 0
-363 347 0
-360 347 0
-347 360 363 0
-359 -362 346 0
-346 362 0
-346 359 0
-362 345 0
-359 345 0
-345 359 362 0
-367 -368 364 0
-364 368 0
-364 367 0
-368 363 0
-367 363 0
-363 367 368 0
-75 -91 351 0
-351 91 0
-351 75 0
-91 368 0
-75 368 0
-368 75 91 0
-67 -83 367 0
-367 83 0
-367 67 0
-83 362 0
-67 362 0
-362 67 83 0
-365 -366 360 0
-360 366 0
-360 365 0
-366 359 0
-365 359 0
-359 365 366 0
-71 -87 361 0
-361 87 0
-361 71 0
-87 366 0
-71 366 0
-366 71 87 0
-63 -79 365 0
-365 79 0
-365 63 0
-79 33 0
-63 33 0
-33 63 79 0
-287 -294 93 0
-93 294 0
-93 287 0
-294 92 0
-287 92 0
-92 287 294 0
-286 -293 91 0
-91 293 0
-91 286 0
-293 90 0
-286 90 0
-90 286 293 0
-285 -292 89 0
-89 292 0
-89 285 0
-292 88 0
-285 88 0
-88 285 292 0
-284 -291 87 0
-87 291 0
-87 284 0
-291 86 0
-284 86 0
-86 284 291 0
-283 -290 85 0
-85 290 0
-85 283 0
-290 84 0
-283 84 0
-84 283 290 0
-282 -289 83 0
-83 289 0
-83 282 0
-289 82 0
-282 82 0
-82 282 289 0
-281 -288 81 0
-81 288 0
-81 281 0
-288 80 0
-281 80 0
-80 281 288 0
-307 -310 294 0
-294 310 0
-294 307 0
-310 293 0
-307 293 0
-293 307 310 0
-306 -309 292 0
-292 309 0
-292 306 0
-309 291 0
-306 291 0
-291 306 309 0
-305 -308 290 0
-290 308 0
-290 305 0
-308 289 0
-305 289 0
-289 305 308 0
-313 -314 310 0
-310 314 0
-310 313 0
-314 309 0
-313 309 0
-309 313 314 0
-212 -220 94 0
-94 220 0
-94 212 0
-220 314 0
-212 314 0
-314 212 220 0
-208 -216 313 0
-313 216 0
-313 208 0
-216 308 0
-208 308 0
-308 208 216 0
-311 -312 306 0
-306 312 0
-306 311 0
-312 305 0
-311 305 0
-305 311 312 0
-210 -218 307 0
-307 218 0
-307 210 0
-218 312 0
-210 312 0
-312 210 218 0
-206 -214 311 0
-311 214 0
-311 206 0
-214 288 0
-206 288 0
-288 206 214 0
-297 -300 286 0
-286 300 0
-286 297 0
-300 285 0
-297 285 0
-285 297 300 0
-296 -299 284 0
-284 299 0
-284 296 0
-299 283 0
-296 283 0
-283 296 299 0
-295 -298 282 0
-282 298 0
-282 295 0
-298 281 0
-295 281 0
-281 295 298 0
-303 -304 300 0
-300 304 0
-300 303 0
-304 299 0
-303 299 0
-299 303 304 0
-211 -219 287 0
-287 219 0
-287 211 0
-219 304 0
-211 304 0
-304 211 219 0
-207 -215 303 0
-303 215 0
-303 207 0
-215 298 0
-207 298 0
-298 207 215 0
-301 -302 296 0
-296 302 0
-296 301 0
-302 295 0
-301 295 0
-295 301 302 0
-209 -217 297 0
-297 217 0
-297 209 0
-217 302 0
-209 302 0
-302 209 217 0
-205 -213 301 0
-301 213 0
-301 205 0
-213 79 0
-205 79 0
-79 205 213 0
-273 -276 219 0
-219 276 0
-219 273 0
-276 218 0
-273 218 0
-218 273 276 0
-272 -275 217 0
-217 275 0
-217 272 0
-275 216 0
-272 216 0
-216 272 275 0
-271 -274 215 0
-215 274 0
-215 271 0
-274 214 0
-271 214 0
-214 271 274 0
-279 -280 276 0
-276 280 0
-276 279 0
-280 275 0
-279 275 0
-275 279 280 0
-254 -258 220 0
-220 258 0
-220 254 0
-258 280 0
-254 280 0
-280 254 258 0
-252 -256 279 0
-279 256 0
-279 252 0
-256 274 0
-252 274 0
-274 252 256 0
-277 -278 272 0
-272 278 0
-272 277 0
-278 271 0
-277 271 0
-271 277 278 0
-253 -257 273 0
-273 257 0
-273 253 0
-257 278 0
-253 278 0
-278 253 257 0
-251 -255 277 0
-277 255 0
-277 251 0
-255 213 0
-251 213 0
-213 251 255 0
-269 -270 257 0
-257 270 0
-257 269 0
-270 256 0
-269 256 0
-256 269 270 0
-266 -268 258 0
-258 268 0
-258 266 0
-268 270 0
-266 270 0
-270 266 268 0
-265 -267 269 0
-269 267 0
-269 265 0
-267 255 0
-265 255 0
-255 265 267 0
-2 -2 268 0
-268 2 0
-268 2 0
-2 267 0
-2 267 0
-267 2 2 0
-31 -32 266 0
-266 32 0
-266 31 0
-32 265 0
-31 265 0
-265 31 32 0
-263 -264 253 0
-253 264 0
-253 263 0
-264 252 0
-263 252 0
-252 263 264 0
-260 -262 254 0
-254 262 0
-254 260 0
-262 264 0
-260 264 0
-264 260 262 0
-259 -261 263 0
-263 261 0
-263 259 0
-261 251 0
-259 251 0
-251 259 261 0
-29 -30 262 0
-262 30 0
-262 29 0
-30 261 0
-29 261 0
-261 29 30 0
-27 -28 260 0
-260 28 0
-260 27 0
-28 259 0
-27 259 0
-259 27 28 0
-243 -246 211 0
-211 246 0
-211 243 0
-246 210 0
-243 210 0
-210 243 246 0
-242 -245 209 0
-209 245 0
-209 242 0
-245 208 0
-242 208 0
-208 242 245 0
-241 -244 207 0
-207 244 0
-207 241 0
-244 206 0
-241 206 0
-206 241 244 0
-249 -250 246 0
-246 250 0
-246 249 0
-250 245 0
-249 245 0
-245 249 250 0
-224 -228 212 0
-212 228 0
-212 224 0
-228 250 0
-224 250 0
-250 224 228 0
-222 -226 249 0
-249 226 0
-249 222 0
-226 244 0
-222 244 0
-244 222 226 0
-247 -248 242 0
-242 248 0
-242 247 0
-248 241 0
-247 241 0
-241 247 248 0
-223 -227 243 0
-243 227 0
-243 223 0
-227 248 0
-223 248 0
-248 223 227 0
-221 -225 247 0
-247 225 0
-247 221 0
-225 205 0
-221 205 0
-205 221 225 0
-239 -240 227 0
-227 240 0
-227 239 0
-240 226 0
-239 226 0
-226 239 240 0
-236 -238 228 0
-228 238 0
-228 236 0
-238 240 0
-236 240 0
-240 236 238 0
-235 -237 239 0
-239 237 0
-239 235 0
-237 225 0
-235 225 0
-225 235 237 0
-25 -26 238 0
-238 26 0
-238 25 0
-26 237 0
-25 237 0
-237 25 26 0
-23 -24 236 0
-236 24 0
-236 23 0
-24 235 0
-23 235 0
-235 23 24 0
-233 -234 223 0
-223 234 0
-223 233 0
-234 222 0
-233 222 0
-222 233 234 0
-230 -232 224 0
-224 232 0
-224 230 0
-232 234 0
-230 234 0
-234 230 232 0
-229 -231 233 0
-233 231 0
-233 229 0
-231 221 0
-229 221 0
-221 229 231 0
-21 -22 232 0
-232 22 0
-232 21 0
-22 231 0
-21 231 0
-231 21 22 0
-19 -20 230 0
-230 20 0
-230 19 0
-20 229 0
-19 229 0
-229 19 20 0
-177 -184 77 0
-77 184 0
-77 177 0
-184 76 0
-177 76 0
-76 177 184 0
-176 -183 75 0
-75 183 0
-75 176 0
-183 74 0
-176 74 0
-74 176 183 0
-175 -182 73 0
-73 182 0
-73 175 0
-182 72 0
-175 72 0
-72 175 182 0
-174 -181 71 0
-71 181 0
-71 174 0
-181 70 0
-174 70 0
-70 174 181 0
-173 -180 69 0
-69 180 0
-69 173 0
-180 68 0
-173 68 0
-68 173 180 0
-172 -179 67 0
-67 179 0
-67 172 0
-179 66 0
-172 66 0
-66 172 179 0
-171 -178 65 0
-65 178 0
-65 171 0
-178 64 0
-171 64 0
-64 171 178 0
-197 -200 184 0
-184 200 0
-184 197 0
-200 183 0
-197 183 0
-183 197 200 0
-196 -199 182 0
-182 199 0
-182 196 0
-199 181 0
-196 181 0
-181 196 199 0
-195 -198 180 0
-180 198 0
-180 195 0
-198 179 0
-195 179 0
-179 195 198 0
-203 -204 200 0
-200 204 0
-200 203 0
-204 199 0
-203 199 0
-199 203 204 0
-102 -110 78 0
-78 110 0
-78 102 0
-110 204 0
-102 204 0
-204 102 110 0
-98 -106 203 0
-203 106 0
-203 98 0
-106 198 0
-98 198 0
-198 98 106 0
-201 -202 196 0
-196 202 0
-196 201 0
-202 195 0
-201 195 0
-195 201 202 0
-100 -108 197 0
-197 108 0
-197 100 0
-108 202 0
-100 202 0
-202 100 108 0
-96 -104 201 0
-201 104 0
-201 96 0
-104 178 0
-96 178 0
-178 96 104 0
-187 -190 176 0
-176 190 0
-176 187 0
-190 175 0
-187 175 0
-175 187 190 0
-186 -189 174 0
-174 189 0
-174 186 0
-189 173 0
-186 173 0
-173 186 189 0
-185 -188 172 0
-172 188 0
-172 185 0
-188 171 0
-185 171 0
-171 185 188 0
-193 -194 190 0
-190 194 0
-190 193 0
-194 189 0
-193 189 0
-189 193 194 0
-101 -109 177 0
-177 109 0
-177 101 0
-109 194 0
-101 194 0
-194 101 109 0
-97 -105 193 0
-193 105 0
-193 97 0
-105 188 0
-97 188 0
-188 97 105 0
-191 -192 186 0
-186 192 0
-186 191 0
-192 185 0
-191 185 0
-185 191 192 0
-99 -107 187 0
-187 107 0
-187 99 0
-107 192 0
-99 192 0
-192 99 107 0
-95 -103 191 0
-191 103 0
-191 95 0
-103 63 0
-95 63 0
-63 95 103 0
-163 -166 109 0
-109 166 0
-109 163 0
-166 108 0
-163 108 0
-108 163 166 0
-162 -165 107 0
-107 165 0
-107 162 0
-165 106 0
-162 106 0
-106 162 165 0
-161 -164 105 0
-105 164 0
-105 161 0
-164 104 0
-161 104 0
-104 161 164 0
-169 -170 166 0
-166 170 0
-166 169 0
-170 165 0
-169 165 0
-165 169 170 0
-144 -148 110 0
-110 148 0
-110 144 0
-148 170 0
-144 170 0
-170 144 148 0
-142 -146 169 0
-169 146 0
-169 142 0
-146 164 0
-142 164 0
-164 142 146 0
-167 -168 162 0
-162 168 0
-162 167 0
-168 161 0
-167 161 0
-161 167 168 0
-143 -147 163 0
-163 147 0
-163 143 0
-147 168 0
-143 168 0
-168 143 147 0
-141 -145 167 0
-167 145 0
-167 141 0
-145 103 0
-141 103 0
-103 141 145 0
-159 -160 147 0
-147 160 0
-147 159 0
-160 146 0
-159 146 0
-146 159 160 0
-156 -158 148 0
-148 158 0
-148 156 0
-158 160 0
-156 160 0
-160 156 158 0
-155 -157 159 0
-159 157 0
-159 155 0
-157 145 0
-155 145 0
-145 155 157 0
-17 -18 158 0
-158 18 0
-158 17 0
-18 157 0
-17 157 0
-157 17 18 0
-15 -16 156 0
-156 16 0
-156 15 0
-16 155 0
-15 155 0
-155 15 16 0
-153 -154 143 0
-143 154 0
-143 153 0
-154 142 0
-153 142 0
-142 153 154 0
-150 -152 144 0
-144 152 0
-144 150 0
-152 154 0
-150 154 0
-154 150 152 0
-149 -151 153 0
-153 151 0
-153 149 0
-151 141 0
-149 141 0
-141 149 151 0
-13 -14 152 0
-152 14 0
-152 13 0
-14 151 0
-13 151 0
-151 13 14 0
-11 -12 150 0
-150 12 0
-150 11 0
-12 149 0
-11 149 0
-149 11 12 0
-133 -136 101 0
-101 136 0
-101 133 0
-136 100 0
-133 100 0
-100 133 136 0
-132 -135 99 0
-99 135 0
-99 132 0
-135 98 0
-132 98 0
-98 132 135 0
-131 -134 97 0
-97 134 0
-97 131 0
-134 96 0
-131 96 0
-96 131 134 0
-139 -140 136 0
-136 140 0
-136 139 0
-140 135 0
-139 135 0
-135 139 140 0
-114 -118 102 0
-102 118 0
-102 114 0
-118 140 0
-114 140 0
-140 114 118 0
-112 -116 139 0
-139 116 0
-139 112 0
-116 134 0
-112 134 0
-134 112 116 0
-137 -138 132 0
-132 138 0
-132 137 0
-138 131 0
-137 131 0
-131 137 138 0
-113 -117 133 0
-133 117 0
-133 113 0
-117 138 0
-113 138 0
-138 113 117 0
-111 -115 137 0
-137 115 0
-137 111 0
-115 95 0
-111 95 0
-95 111 115 0
-129 -130 117 0
-117 130 0
-117 129 0
-130 116 0
-129 116 0
-116 129 130 0
-126 -128 118 0
-118 128 0
-118 126 0
-128 130 0
-126 130 0
-130 126 128 0
-125 -127 129 0
-129 127 0
-129 125 0
-127 115 0
-125 115 0
-115 125 127 0
-9 -10 128 0
-128 10 0
-128 9 0
-10 127 0
-9 127 0
-127 9 10 0
-7 -8 126 0
-126 8 0
-126 7 0
-8 125 0
-7 125 0
-125 7 8 0
-123 -124 113 0
-113 124 0
-113 123 0
-124 112 0
-123 112 0
-112 123 124 0
-120 -122 114 0
-114 122 0
-114 120 0
-122 124 0
-120 124 0
-124 120 122 0
-119 -121 123 0
-123 121 0
-123 119 0
-121 111 0
-119 111 0
-111 119 121 0
-5 -6 122 0
-122 6 0
-122 5 0
-6 121 0
-5 121 0
-121 5 6 0
-3 -4 120 0
-120 4 0
-120 3 0
-4 119 0
-3 119 0
-119 3 4 0
-32 0
-31 0
30 0
-29 0
-28 0
27 0
-26 0
-25 0
24 0
-23 0
-22 0
21 0
-20 0
-19 0
18 0
-17 0
-16 0
15 0
-14 0
-13 0
12 0
-11 0
-10 0
9 0
-8 0
-7 0
6 0
-5 0
-4 0
3 0
1 0
-2 0
